c defined variables: 8 9 10 11 12 13 14 15 16 17 18 19 20 21 22 23 24 25 26 27 28 29 30 31 32 33 43 44 45 46 47 48 49 50 51 52 53 54 55 56 57 58 59 60 61 62 63 64 66 67 68 69 70 71 72 73 74 75 76 
p cnf 383 618
a 1 2 3 4 5 6 7 35 36 37 38 39 40 41 42 0
e 8 9 10 11 12 13 14 15 16 17 18 19 20 21 22 23 24 25 26 27 28 29 30 31 32 33 43 44 45 46 47 48 49 50 51 52 53 54 55 56 57 58 59 60 61 62 63 64 66 67 68 69 70 71 72 73 74 75 76 287 288 289 290 291 292 293 294 295 296 297 298 299 300 301 302 303 304 305 306 307 308 309 310 311 312 313 314 315 316 317 318 319 320 321 322 323 324 325 326 327 328 329 330 331 332 333 334 335 336 337 338 339 340 341 342 343 344 345 346 347 348 349 350 351 352 353 354 355 356 357 358 359 360 361 362 363 364 365 366 367 368 369 370 371 372 373 374 375 376 377 378 379 380 381 382 383 0
d 34 35 36 37 38 39 40 41 42 0
d 65 1 2 3 4 5 6 7 35 36 37 38 39 40 41 42 0
287 -8 0
-287 8 0
288 -9 0
-288 9 0
-289 -10 0
289 10 0
290 -11 0
-290 11 0
291 -12 0
-291 12 0
-292 -13 0
292 13 0
293 -14 0
-293 14 0
294 -15 0
-294 15 0
-295 -16 0
295 16 0
296 -17 0
-296 17 0
297 -18 0
-297 18 0
-298 -19 0
298 19 0
299 -20 0
-299 20 0
300 -21 0
-300 21 0
-301 -22 0
301 22 0
-302 -23 0
302 23 0
303 -24 0
-303 24 0
305 -25 0
-305 25 0
307 -26 0
-307 26 0
-309 -27 0
309 27 0
310 -28 0
-310 28 0
311 -29 0
-311 29 0
313 -30 0
-313 30 0
314 -31 0
-314 31 0
315 -32 0
-315 32 0
-319 -33 0
319 33 0
287 -43 0
-287 43 0
288 -44 0
-288 44 0
-320 -45 0
320 45 0
321 -46 0
-321 46 0
322 -47 0
-322 47 0
-323 -48 0
323 48 0
293 -49 0
-293 49 0
324 -50 0
-324 50 0
-325 -51 0
325 51 0
296 -52 0
-296 52 0
297 -53 0
-297 53 0
-326 -54 0
326 54 0
327 -55 0
-327 55 0
328 -56 0
-328 56 0
-329 -57 0
329 57 0
-302 -58 0
302 58 0
303 -59 0
-303 59 0
330 -60 0
-330 60 0
-331 -61 0
331 61 0
333 -62 0
-333 62 0
-335 -63 0
335 63 0
-338 -64 0
338 64 0
341 -66 0
-341 66 0
344 -67 0
-344 67 0
347 -68 0
-347 68 0
350 -69 0
-350 69 0
353 -70 0
-353 70 0
356 -71 0
-356 71 0
359 -72 0
-359 72 0
362 -73 0
-362 73 0
365 -74 0
-365 74 0
380 -75 0
-380 75 0
383 -76 0
-383 76 0
-8 1 0
-8 4 0
-1 -4 8 0
-9 -1 0
-9 -4 0
1 4 9 0
-8 10 0
-9 10 0
-10 8 9 0
-11 7 0
-11 10 0
-7 -10 11 0
-12 -7 0
-12 -10 0
7 10 12 0
-11 13 0
-12 13 0
-13 11 12 0
-14 4 0
-14 7 0
-4 -7 14 0
-15 1 0
-15 -13 0
-1 13 15 0
-14 16 0
-15 16 0
-16 14 15 0
-17 3 0
-17 6 0
-3 -6 17 0
-18 -3 0
-18 -6 0
3 6 18 0
-17 19 0
-18 19 0
-19 17 18 0
-20 16 0
-20 19 0
-16 -19 20 0
-21 -16 0
-21 -19 0
16 19 21 0
-20 22 0
-21 22 0
-22 20 21 0
-2 23 0
-5 23 0
-23 2 5 0
-24 2 0
-24 5 0
-2 -5 24 0
-25 3 0
-25 -22 0
-25 23 0
-3 22 -23 25 0
-26 6 0
-26 16 0
-26 23 0
-6 -16 -23 26 0
-24 27 0
-25 27 0
-26 27 0
-27 24 25 26 0
-28 -27 0
-28 23 0
27 -23 28 0
-29 3 0
-29 6 0
-29 -27 0
-3 -6 27 29 0
-30 -27 0
-30 -22 0
-30 16 0
27 22 -16 30 0
-31 2 0
-31 3 0
-31 5 0
-31 6 0
-2 -3 -5 -6 31 0
-32 2 0
-32 5 0
-32 -22 0
-32 16 0
-2 -5 22 -16 32 0
-28 33 0
-29 33 0
-30 33 0
-31 33 0
-32 33 0
-33 28 29 30 31 32 0
-43 1 0
-43 4 0
-1 -4 43 0
-44 -1 0
-44 -4 0
1 4 44 0
-43 45 0
-44 45 0
-45 43 44 0
-46 7 0
-46 45 0
-7 -45 46 0
-47 -7 0
-47 -45 0
7 45 47 0
-46 48 0
-47 48 0
-48 46 47 0
-49 4 0
-49 7 0
-4 -7 49 0
-50 1 0
-50 -48 0
-1 48 50 0
-49 51 0
-50 51 0
-51 49 50 0
-52 3 0
-52 6 0
-3 -6 52 0
-53 -3 0
-53 -6 0
3 6 53 0
-52 54 0
-53 54 0
-54 52 53 0
-55 51 0
-55 54 0
-51 -54 55 0
-56 -51 0
-56 -54 0
51 54 56 0
-55 57 0
-56 57 0
-57 55 56 0
-2 58 0
-5 58 0
-58 2 5 0
-59 2 0
-59 5 0
-2 -5 59 0
-60 3 0
-60 -57 0
-3 57 60 0
-58 61 0
-60 61 0
-61 58 60 0
-62 6 0
-62 51 0
-62 58 0
-6 -51 -58 62 0
-59 63 0
-61 63 0
-62 63 0
-63 59 61 62 0
-64 -27 63 0
-64 27 -63 0
64 -27 -63 0
64 27 63 0
-65 -33 34 0
-65 33 -34 0
65 -33 -34 0
65 33 34 0
-66 -22 57 0
-66 22 -57 0
66 -22 -57 0
66 22 57 0
-67 -13 48 0
-67 13 -48 0
67 -13 -48 0
67 13 48 0
-64 -65 -66 -67 68 0
-68 64 0
-68 65 0
-68 66 0
-68 67 0
-2 -35 -69 0
-2 35 69 0
2 -35 69 0
2 35 -69 0
-3 -36 -70 0
-3 36 70 0
3 -36 70 0
3 36 -70 0
-5 -37 -71 0
-5 37 71 0
5 -37 71 0
5 37 -71 0
-6 -38 -72 0
-6 38 72 0
6 -38 72 0
6 38 -72 0
-63 -39 -73 0
-63 39 73 0
63 -39 73 0
63 39 -73 0
-57 -40 -74 0
-57 40 74 0
57 -40 74 0
57 40 -74 0
-51 -41 -75 0
-51 41 75 0
51 -41 75 0
51 41 -75 0
-58 -42 -76 0
-58 42 76 0
58 -42 76 0
58 42 -76 0
69 70 71 72 73 74 75 76 68 0
1 -287 0
4 -287 0
-1 -4 287 0
-1 -288 0
-4 -288 0
1 4 288 0
-8 -289 0
-9 -289 0
8 9 289 0
7 -290 0
10 -290 0
-7 -10 290 0
-7 -291 0
-10 -291 0
7 10 291 0
-11 -292 0
-12 -292 0
11 12 292 0
4 -293 0
7 -293 0
-4 -7 293 0
1 -294 0
-13 -294 0
-1 13 294 0
-14 -295 0
-15 -295 0
14 15 295 0
3 -296 0
6 -296 0
-3 -6 296 0
-3 -297 0
-6 -297 0
3 6 297 0
-17 -298 0
-18 -298 0
17 18 298 0
16 -299 0
19 -299 0
-16 -19 299 0
-16 -300 0
-19 -300 0
16 19 300 0
-20 -301 0
-21 -301 0
20 21 301 0
-2 -302 0
-5 -302 0
2 5 302 0
2 -303 0
5 -303 0
-2 -5 303 0
3 -304 0
-22 -304 0
-3 22 304 0
23 -305 0
304 -305 0
-23 -304 305 0
6 -306 0
16 -306 0
-6 -16 306 0
23 -307 0
306 -307 0
-23 -306 307 0
-24 -308 0
-25 -308 0
24 25 308 0
-26 -309 0
308 -309 0
26 -308 309 0
23 -310 0
-27 -310 0
-23 27 310 0
-27 -311 0
296 -311 0
27 -296 311 0
16 -312 0
-22 -312 0
-16 22 312 0
-27 -313 0
312 -313 0
27 -312 313 0
296 -314 0
303 -314 0
-296 -303 314 0
303 -315 0
312 -315 0
-303 -312 315 0
-28 -316 0
-29 -316 0
28 29 316 0
-30 -317 0
-31 -317 0
30 31 317 0
-32 -318 0
317 -318 0
32 -317 318 0
316 -319 0
318 -319 0
-316 -318 319 0
-43 -320 0
-44 -320 0
43 44 320 0
7 -321 0
45 -321 0
-7 -45 321 0
-7 -322 0
-45 -322 0
7 45 322 0
-46 -323 0
-47 -323 0
46 47 323 0
1 -324 0
-48 -324 0
-1 48 324 0
-49 -325 0
-50 -325 0
49 50 325 0
-52 -326 0
-53 -326 0
52 53 326 0
51 -327 0
54 -327 0
-51 -54 327 0
-51 -328 0
-54 -328 0
51 54 328 0
-55 -329 0
-56 -329 0
55 56 329 0
3 -330 0
-57 -330 0
-3 57 330 0
-58 -331 0
-60 -331 0
58 60 331 0
6 -332 0
51 -332 0
-6 -51 332 0
58 -333 0
332 -333 0
-58 -332 333 0
-59 -334 0
-61 -334 0
59 61 334 0
-62 -335 0
334 -335 0
62 -334 335 0
-27 -336 0
-63 -336 0
27 63 336 0
27 -337 0
63 -337 0
-27 -63 337 0
-336 -338 0
-337 -338 0
336 337 338 0
22 -339 0
-57 -339 0
-22 57 339 0
-22 -340 0
57 -340 0
22 -57 340 0
-339 -341 0
-340 -341 0
339 340 341 0
13 -342 0
-48 -342 0
-13 48 342 0
-13 -343 0
48 -343 0
13 -48 343 0
-342 -344 0
-343 -344 0
342 343 344 0
64 -345 0
65 -345 0
-64 -65 345 0
66 -346 0
67 -346 0
-66 -67 346 0
345 -347 0
346 -347 0
-345 -346 347 0
-2 -348 0
-35 -348 0
2 35 348 0
2 -349 0
35 -349 0
-2 -35 349 0
-348 -350 0
-349 -350 0
348 349 350 0
-3 -351 0
-36 -351 0
3 36 351 0
3 -352 0
36 -352 0
-3 -36 352 0
-351 -353 0
-352 -353 0
351 352 353 0
-5 -354 0
-37 -354 0
5 37 354 0
5 -355 0
37 -355 0
-5 -37 355 0
-354 -356 0
-355 -356 0
354 355 356 0
-6 -357 0
-38 -357 0
6 38 357 0
6 -358 0
38 -358 0
-6 -38 358 0
-357 -359 0
-358 -359 0
357 358 359 0
-39 -360 0
-63 -360 0
39 63 360 0
39 -361 0
63 -361 0
-39 -63 361 0
-360 -362 0
-361 -362 0
360 361 362 0
-40 -363 0
-57 -363 0
40 57 363 0
40 -364 0
57 -364 0
-40 -57 364 0
-363 -365 0
-364 -365 0
363 364 365 0
-296 -366 0
-297 -366 0
296 297 366 0
-54 -367 0
366 -367 0
54 -366 367 0
54 -368 0
-366 -368 0
-54 366 368 0
-367 -369 0
-368 -369 0
367 368 369 0
41 -370 0
51 -370 0
-41 -51 370 0
57 -371 0
329 -371 0
-57 -329 371 0
-370 -372 0
-371 -372 0
370 371 372 0
-55 -373 0
327 -373 0
55 -327 373 0
-56 -374 0
328 -374 0
56 -328 374 0
41 -375 0
-55 -375 0
-41 55 375 0
-51 -376 0
-375 -376 0
51 375 376 0
-374 -377 0
-376 -377 0
374 376 377 0
-373 -378 0
377 -378 0
373 -377 378 0
372 -379 0
378 -379 0
-372 -378 379 0
-369 -380 0
379 -380 0
369 -379 380 0
-42 -381 0
-58 -381 0
42 58 381 0
42 -382 0
58 -382 0
-42 -58 382 0
-381 -383 0
-382 -383 0
381 382 383 0
